NAME : dataset5.tsp.bidireccional.tour
TYPE : TOUR
DIMENSION : 6
SOLUTION: 10706.958140598337
TOUR_SECTION
4,1,2,5,3,4
1297.4977601328126 - 4, 1
1247.730372495378 - 1, 2
1778.8516951165716 - 2, 5
3232.5960425352864 - 5, 3
3150.2822703182874 - 3, 4
EOF